\ENCODING=ISO-8859-1
\Problem name: IloCplex

Minimize
 obj1:
Subject To
 c1:  X(0)(0)(0)#0 + X(0)(0)(1)#1 + X(0)(0)(2)#2 + X(0)(0)(3)#3 + X(0)(0)(4)#4
      + X(0)(0)(5)#5 + X(0)(0)(6)#6 + X(0)(0)(7)#7 + X(0)(0)(8)#8  = 1
 c2:  X(0)(1)(0)#9 + X(0)(1)(1)#10 + X(0)(1)(2)#11 + X(0)(1)(3)#12
      + X(0)(1)(4)#13 + X(0)(1)(5)#14 + X(0)(1)(6)#15 + X(0)(1)(7)#16
      + X(0)(1)(8)#17  = 1
 c3:  X(0)(2)(0)#18 + X(0)(2)(1)#19 + X(0)(2)(2)#20 + X(0)(2)(3)#21
      + X(0)(2)(4)#22 + X(0)(2)(5)#23 + X(0)(2)(6)#24 + X(0)(2)(7)#25
      + X(0)(2)(8)#26  = 1
 c4:  X(1)(0)(0)#27 + X(1)(0)(1)#28 + X(1)(0)(2)#29 + X(1)(0)(3)#30
      + X(1)(0)(4)#31 + X(1)(0)(5)#32 + X(1)(0)(6)#33 + X(1)(0)(7)#34
      + X(1)(0)(8)#35  = 1
 c5:  X(1)(1)(0)#36 + X(1)(1)(1)#37 + X(1)(1)(2)#38 + X(1)(1)(3)#39
      + X(1)(1)(4)#40 + X(1)(1)(5)#41 + X(1)(1)(6)#42 + X(1)(1)(7)#43
      + X(1)(1)(8)#44  = 1
 c6:  X(1)(2)(0)#45 + X(1)(2)(1)#46 + X(1)(2)(2)#47 + X(1)(2)(3)#48
      + X(1)(2)(4)#49 + X(1)(2)(5)#50 + X(1)(2)(6)#51 + X(1)(2)(7)#52
      + X(1)(2)(8)#53  = 1
 c7:  X(2)(0)(0)#54 + X(2)(0)(1)#55 + X(2)(0)(2)#56 + X(2)(0)(3)#57
      + X(2)(0)(4)#58 + X(2)(0)(5)#59 + X(2)(0)(6)#60 + X(2)(0)(7)#61
      + X(2)(0)(8)#62  = 1
 c8:  X(2)(1)(0)#63 + X(2)(1)(1)#64 + X(2)(1)(2)#65 + X(2)(1)(3)#66
      + X(2)(1)(4)#67 + X(2)(1)(5)#68 + X(2)(1)(6)#69 + X(2)(1)(7)#70
      + X(2)(1)(8)#71  = 1
 c9:  X(2)(2)(0)#72 + X(2)(2)(1)#73 + X(2)(2)(2)#74 + X(2)(2)(3)#75
      + X(2)(2)(4)#76 + X(2)(2)(5)#77 + X(2)(2)(6)#78 + X(2)(2)(7)#79
      + X(2)(2)(8)#80  = 1
 c10: X(0)(0)(0)#0 + X(0)(1)(0)#9 + X(0)(2)(0)#18 + X(1)(0)(0)#27
      + X(1)(1)(0)#36 + X(1)(2)(0)#45 + X(2)(0)(0)#54 + X(2)(1)(0)#63
      + X(2)(2)(0)#72  = 1
 c11: X(0)(0)(1)#1 + X(0)(1)(1)#10 + X(0)(2)(1)#19 + X(1)(0)(1)#28
      + X(1)(1)(1)#37 + X(1)(2)(1)#46 + X(2)(0)(1)#55 + X(2)(1)(1)#64
      + X(2)(2)(1)#73  = 1
 c12: X(0)(0)(2)#2 + X(0)(1)(2)#11 + X(0)(2)(2)#20 + X(1)(0)(2)#29
      + X(1)(1)(2)#38 + X(1)(2)(2)#47 + X(2)(0)(2)#56 + X(2)(1)(2)#65
      + X(2)(2)(2)#74  = 1
 c13: X(0)(0)(3)#3 + X(0)(1)(3)#12 + X(0)(2)(3)#21 + X(1)(0)(3)#30
      + X(1)(1)(3)#39 + X(1)(2)(3)#48 + X(2)(0)(3)#57 + X(2)(1)(3)#66
      + X(2)(2)(3)#75  = 1
 c14: X(0)(0)(4)#4 + X(0)(1)(4)#13 + X(0)(2)(4)#22 + X(1)(0)(4)#31
      + X(1)(1)(4)#40 + X(1)(2)(4)#49 + X(2)(0)(4)#58 + X(2)(1)(4)#67
      + X(2)(2)(4)#76  = 1
 c15: X(0)(0)(5)#5 + X(0)(1)(5)#14 + X(0)(2)(5)#23 + X(1)(0)(5)#32
      + X(1)(1)(5)#41 + X(1)(2)(5)#50 + X(2)(0)(5)#59 + X(2)(1)(5)#68
      + X(2)(2)(5)#77  = 1
 c16: X(0)(0)(6)#6 + X(0)(1)(6)#15 + X(0)(2)(6)#24 + X(1)(0)(6)#33
      + X(1)(1)(6)#42 + X(1)(2)(6)#51 + X(2)(0)(6)#60 + X(2)(1)(6)#69
      + X(2)(2)(6)#78  = 1
 c17: X(0)(0)(7)#7 + X(0)(1)(7)#16 + X(0)(2)(7)#25 + X(1)(0)(7)#34
      + X(1)(1)(7)#43 + X(1)(2)(7)#52 + X(2)(0)(7)#61 + X(2)(1)(7)#70
      + X(2)(2)(7)#79  = 1
 c18: X(0)(0)(8)#8 + X(0)(1)(8)#17 + X(0)(2)(8)#26 + X(1)(0)(8)#35
      + X(1)(1)(8)#44 + X(1)(2)(8)#53 + X(2)(0)(8)#62 + X(2)(1)(8)#71
      + X(2)(2)(8)#80  = 1
Bounds
 0 <= X(0)(0)(0)#0 <= 1
 0 <= X(0)(0)(1)#1 <= 1
 0 <= X(0)(0)(2)#2 <= 1
 0 <= X(0)(0)(3)#3 <= 1
 0 <= X(0)(0)(4)#4 <= 1
 0 <= X(0)(0)(5)#5 <= 1
 0 <= X(0)(0)(6)#6 <= 1
 0 <= X(0)(0)(7)#7 <= 1
 0 <= X(0)(0)(8)#8 <= 1
 0 <= X(0)(1)(0)#9 <= 1
 0 <= X(0)(1)(1)#10 <= 1
 0 <= X(0)(1)(2)#11 <= 1
 0 <= X(0)(1)(3)#12 <= 1
 0 <= X(0)(1)(4)#13 <= 1
 0 <= X(0)(1)(5)#14 <= 1
 0 <= X(0)(1)(6)#15 <= 1
 0 <= X(0)(1)(7)#16 <= 1
 0 <= X(0)(1)(8)#17 <= 1
 0 <= X(0)(2)(0)#18 <= 1
 0 <= X(0)(2)(1)#19 <= 1
 0 <= X(0)(2)(2)#20 <= 1
 0 <= X(0)(2)(3)#21 <= 1
 0 <= X(0)(2)(4)#22 <= 1
 0 <= X(0)(2)(5)#23 <= 1
 0 <= X(0)(2)(6)#24 <= 1
 0 <= X(0)(2)(7)#25 <= 1
 0 <= X(0)(2)(8)#26 <= 1
 0 <= X(1)(0)(0)#27 <= 1
 0 <= X(1)(0)(1)#28 <= 1
 0 <= X(1)(0)(2)#29 <= 1
 0 <= X(1)(0)(3)#30 <= 1
 0 <= X(1)(0)(4)#31 <= 1
 0 <= X(1)(0)(5)#32 <= 1
 0 <= X(1)(0)(6)#33 <= 1
 0 <= X(1)(0)(7)#34 <= 1
 0 <= X(1)(0)(8)#35 <= 1
 0 <= X(1)(1)(0)#36 <= 1
 0 <= X(1)(1)(1)#37 <= 1
 0 <= X(1)(1)(2)#38 <= 1
 0 <= X(1)(1)(3)#39 <= 1
 0 <= X(1)(1)(4)#40 <= 1
 0 <= X(1)(1)(5)#41 <= 1
 0 <= X(1)(1)(6)#42 <= 1
 0 <= X(1)(1)(7)#43 <= 1
 0 <= X(1)(1)(8)#44 <= 1
 0 <= X(1)(2)(0)#45 <= 1
 0 <= X(1)(2)(1)#46 <= 1
 0 <= X(1)(2)(2)#47 <= 1
 0 <= X(1)(2)(3)#48 <= 1
 0 <= X(1)(2)(4)#49 <= 1
 0 <= X(1)(2)(5)#50 <= 1
 0 <= X(1)(2)(6)#51 <= 1
 0 <= X(1)(2)(7)#52 <= 1
 0 <= X(1)(2)(8)#53 <= 1
 0 <= X(2)(0)(0)#54 <= 1
 0 <= X(2)(0)(1)#55 <= 1
 0 <= X(2)(0)(2)#56 <= 1
 0 <= X(2)(0)(3)#57 <= 1
 0 <= X(2)(0)(4)#58 <= 1
 0 <= X(2)(0)(5)#59 <= 1
 0 <= X(2)(0)(6)#60 <= 1
 0 <= X(2)(0)(7)#61 <= 1
 0 <= X(2)(0)(8)#62 <= 1
 0 <= X(2)(1)(0)#63 <= 1
 0 <= X(2)(1)(1)#64 <= 1
 0 <= X(2)(1)(2)#65 <= 1
 0 <= X(2)(1)(3)#66 <= 1
 0 <= X(2)(1)(4)#67 <= 1
 0 <= X(2)(1)(5)#68 <= 1
 0 <= X(2)(1)(6)#69 <= 1
 0 <= X(2)(1)(7)#70 <= 1
 0 <= X(2)(1)(8)#71 <= 1
 0 <= X(2)(2)(0)#72 <= 1
 0 <= X(2)(2)(1)#73 <= 1
 0 <= X(2)(2)(2)#74 <= 1
 0 <= X(2)(2)(3)#75 <= 1
 0 <= X(2)(2)(4)#76 <= 1
 0 <= X(2)(2)(5)#77 <= 1
 0 <= X(2)(2)(6)#78 <= 1
 0 <= X(2)(2)(7)#79 <= 1
 0 <= X(2)(2)(8)#80 <= 1
Binaries
 X(0)(0)(0)#0  X(0)(0)(1)#1  X(0)(0)(2)#2  X(0)(0)(3)#3  X(0)(0)(4)#4 
 X(0)(0)(5)#5  X(0)(0)(6)#6  X(0)(0)(7)#7  X(0)(0)(8)#8  X(0)(1)(0)#9 
 X(0)(1)(1)#10  X(0)(1)(2)#11  X(0)(1)(3)#12  X(0)(1)(4)#13  X(0)(1)(5)#14 
 X(0)(1)(6)#15  X(0)(1)(7)#16  X(0)(1)(8)#17  X(0)(2)(0)#18  X(0)(2)(1)#19 
 X(0)(2)(2)#20  X(0)(2)(3)#21  X(0)(2)(4)#22  X(0)(2)(5)#23  X(0)(2)(6)#24 
 X(0)(2)(7)#25  X(0)(2)(8)#26  X(1)(0)(0)#27  X(1)(0)(1)#28  X(1)(0)(2)#29 
 X(1)(0)(3)#30  X(1)(0)(4)#31  X(1)(0)(5)#32  X(1)(0)(6)#33  X(1)(0)(7)#34 
 X(1)(0)(8)#35  X(1)(1)(0)#36  X(1)(1)(1)#37  X(1)(1)(2)#38  X(1)(1)(3)#39 
 X(1)(1)(4)#40  X(1)(1)(5)#41  X(1)(1)(6)#42  X(1)(1)(7)#43  X(1)(1)(8)#44 
 X(1)(2)(0)#45  X(1)(2)(1)#46  X(1)(2)(2)#47  X(1)(2)(3)#48  X(1)(2)(4)#49 
 X(1)(2)(5)#50  X(1)(2)(6)#51  X(1)(2)(7)#52  X(1)(2)(8)#53  X(2)(0)(0)#54 
 X(2)(0)(1)#55  X(2)(0)(2)#56  X(2)(0)(3)#57  X(2)(0)(4)#58  X(2)(0)(5)#59 
 X(2)(0)(6)#60  X(2)(0)(7)#61  X(2)(0)(8)#62  X(2)(1)(0)#63  X(2)(1)(1)#64 
 X(2)(1)(2)#65  X(2)(1)(3)#66  X(2)(1)(4)#67  X(2)(1)(5)#68  X(2)(1)(6)#69 
 X(2)(1)(7)#70  X(2)(1)(8)#71  X(2)(2)(0)#72  X(2)(2)(1)#73  X(2)(2)(2)#74 
 X(2)(2)(3)#75  X(2)(2)(4)#76  X(2)(2)(5)#77  X(2)(2)(6)#78  X(2)(2)(7)#79 
 X(2)(2)(8)#80 
End
